%%% static parameters %%%
timespan = 1;
Clients_N = [1000];
Demand_W = [15];
Lt0 = [4];
Lt1 = [4];
SS_ = [0.85];
DS_D = [20];
K = [200];
MA = [500];
HC = [0.05];
%%% dynamic parameters %%%
lost_ratio_sales_ret_th = 0.004627441142815498;
lost_ratio_sales_ret_w = 46;
lost_ratio_sales_dis_th = 6.294301086681942e-05;
lost_ratio_sales_dis_w = 66;
lost_ratio_sales_fac_th = 0.0037520380685137755;
lost_ratio_sales_fac_w = 94;
stock_customer_MA_mean_relative_th = 0.6297977310487581;
stock_customer_MA_mean_relative_w = 52;
stock_distributor_MA_mean_relative_th = 0.8405108527198284;
stock_distributor_MA_mean_relative_w = 12;
stock_retailer_MA_mean_relative_th = 0.5490425134849181;
stock_retailer_MA_mean_relative_w = 100;
stock_factory_MA_mean_relative_th = 0.48998820481960315;
stock_factory_MA_mean_relative_w = 76;
